p cnf 7230 16
-1464 -1788 2576 0
1464 -2577 0
2578 2579 0
1878 -2579 0
-1878 -2578 0
-2576 2577 0
2574 2575 0
1876 -2575 0
-1876 -2574 0
-1874 2573 0
2572 -2573 0
1874 -2572 0
1788 -2577 0
-1880 2581 0
1880 -2581 0
-2570 2571 0
